(set-info :smt-lib-version 2.6)
(set-logic AUFBVFPDTNIRA)
(set-info :source |
Generated by: AdaCore
Generated on: 2020-03-06
Generator: SPARK
Application: Program verification for Ada
Target solver: Z3
|)
(set-info :license "https://creativecommons.org/licenses/by/4.0/")
(set-info :category "industrial")
(set-info :status unknown)
;;; generated by SMT-LIB2 driver
;;; SMT-LIB2 driver: bit-vectors, common part
;;; SMT-LIB2: integer arithmetic
(declare-sort string 0)

(declare-datatypes () ((tuple0 (Tuple0))))
(declare-sort us_private 0)

(declare-fun private__bool_eq (us_private us_private) Bool)

(declare-const us_null_ext__ us_private)

(declare-sort us_type_of_heap 0)

(declare-datatypes ()
((us_type_of_heap__ref
 (us_type_of_heap__refqtmk (us_type_of_heap__content us_type_of_heap)))))
(declare-sort us_image 0)

(declare-datatypes () ((int__ref (int__refqtmk (int__content Int)))))
(declare-datatypes () ((bool__ref (bool__refqtmk (bool__content Bool)))))
(declare-datatypes ()
((us_fixed__ref (us_fixed__refqtmk (us_fixed__content Int)))))
(declare-datatypes () ((real__ref (real__refqtmk (real__content Real)))))
(declare-datatypes ()
((us_private__ref (us_private__refqtmk (us_private__content us_private)))))
(define-fun int__ref___projection ((a int__ref)) Int (int__content a))

(define-fun us_fixed__ref___projection ((a us_fixed__ref)) Int (us_fixed__content
                                                               a))

(define-fun bool__ref___projection ((a bool__ref)) Bool (bool__content a))

(define-fun real__ref___projection ((a real__ref)) Real (real__content a))

(define-fun us_private__ref___projection ((a us_private__ref)) us_private 
  (us_private__content a))

(declare-fun power (Int Int) Int)

;; Power_0
  (assert (forall ((x Int)) (= (power x 0) 1)))

;; Power_s
  (assert
  (forall ((x Int) (n Int))
  (=> (<= 0 n) (= (power x (+ n 1)) (* x (power x n))))))

;; Power_s_alt
  (assert
  (forall ((x Int) (n Int))
  (=> (< 0 n) (= (power x n) (* x (power x (- n 1)))))))

;; Power_1
  (assert (forall ((x Int)) (= (power x 1) x)))

;; Power_sum
  (assert
  (forall ((x Int) (n Int) (m Int))
  (=> (<= 0 n)
  (=> (<= 0 m) (= (power x (+ n m)) (* (power x n) (power x m)))))))

;; Power_mult
  (assert
  (forall ((x Int) (n Int) (m Int))
  (=> (<= 0 n) (=> (<= 0 m) (= (power x (* n m)) (power (power x n) m))))))

;; Power_comm1
  (assert
  (forall ((x Int) (y Int))
  (=> (= (* x y) (* y x))
  (forall ((n Int)) (=> (<= 0 n) (= (* (power x n) y) (* y (power x n))))))))

;; Power_comm2
  (assert
  (forall ((x Int) (y Int))
  (=> (= (* x y) (* y x))
  (forall ((n Int))
  (=> (<= 0 n) (= (power (* x y) n) (* (power x n) (power y n))))))))

;; Power_non_neg
  (assert
  (forall ((x Int) (y Int)) (=> (and (<= 0 x) (<= 0 y)) (<= 0 (power x y)))))

;; Power_pos
  (assert
  (forall ((x Int) (y Int)) (=> (and (< 0 x) (<= 0 y)) (< 0 (power x y)))))

;; Power_monotonic
  (assert
  (forall ((x Int) (n Int) (m Int))
  (=> (and (< 0 x) (and (<= 0 n) (<= n m))) (<= (power x n) (power x m)))))

(declare-sort natural 0)

(declare-fun naturalqtint (natural) Int)

;; natural'axiom
  (assert
  (forall ((i natural))
  (and (<= 0 (naturalqtint i)) (<= (naturalqtint i) 2147483647))))

(define-fun in_range ((x Int)) Bool (and (<= 0 x) (<= x 2147483647)))

(declare-fun attr__ATTRIBUTE_IMAGE (Int) us_image)

(declare-fun attr__ATTRIBUTE_VALUE__pre_check (us_image) Bool)

(declare-fun attr__ATTRIBUTE_VALUE (us_image) Int)

(declare-fun user_eq (natural natural) Bool)

(declare-const dummy natural)

(declare-datatypes ()
((natural__ref (natural__refqtmk (natural__content natural)))))
(define-fun natural__ref_natural__content__projection ((a natural__ref)) natural 
  (natural__content a))

(declare-const left Int)

(declare-const attr__ATTRIBUTE_ADDRESS Int)

(declare-const right Int)

(declare-const attr__ATTRIBUTE_ADDRESS1 Int)

(declare-sort tinteger_32B 0)

(declare-fun tinteger_32Bqtint (tinteger_32B) Int)

;; tinteger_32B'axiom
  (assert
  (forall ((i tinteger_32B))
  (and (<= (- 2147483648) (tinteger_32Bqtint i))
  (<= (tinteger_32Bqtint i) 2147483647))))

(define-fun in_range1 ((x Int)) Bool (and (<= (- 2147483648) x)
                                     (<= x 2147483647)))

(declare-fun attr__ATTRIBUTE_IMAGE1 (Int) us_image)

(declare-fun attr__ATTRIBUTE_VALUE__pre_check1 (us_image) Bool)

(declare-fun attr__ATTRIBUTE_VALUE1 (us_image) Int)

(declare-fun user_eq1 (tinteger_32B tinteger_32B) Bool)

(declare-const dummy1 tinteger_32B)

(declare-datatypes ()
((tinteger_32B__ref
 (tinteger_32B__refqtmk (tinteger_32B__content tinteger_32B)))))
(define-fun tinteger_32B__ref_tinteger_32B__content__projection ((a tinteger_32B__ref)) tinteger_32B 
  (tinteger_32B__content a))

(declare-sort integer_32 0)

(declare-fun integer_32qtint (integer_32) Int)

;; integer_32'axiom
  (assert
  (forall ((i integer_32))
  (and (<= (- 2147483648) (integer_32qtint i))
  (<= (integer_32qtint i) 2147483647))))

(define-fun in_range2 ((x Int)) Bool (and (<= (- 2147483648) x)
                                     (<= x 2147483647)))

(declare-fun attr__ATTRIBUTE_IMAGE2 (Int) us_image)

(declare-fun attr__ATTRIBUTE_VALUE__pre_check2 (us_image) Bool)

(declare-fun attr__ATTRIBUTE_VALUE2 (us_image) Int)

(declare-fun user_eq2 (integer_32 integer_32) Bool)

(declare-const dummy2 integer_32)

(declare-datatypes ()
((integer_32__ref (integer_32__refqtmk (integer_32__content integer_32)))))
(define-fun integer_32__ref_integer_32__content__2__projection ((a integer_32__ref)) integer_32 
  (integer_32__content a))

(define-fun dynamic_invariant ((temp___expr_349 Int)
  (temp___is_init_345 Bool) (temp___skip_constant_346 Bool)
  (temp___do_toplevel_347 Bool)
  (temp___do_typ_inv_348 Bool)) Bool (=>
                                     (or (= temp___is_init_345 true)
                                     (<= (- 2147483648) 2147483647))
                                     (in_range2 temp___expr_349)))

(define-fun dynamic_invariant1 ((temp___expr_39 Int) (temp___is_init_35 Bool)
  (temp___skip_constant_36 Bool) (temp___do_toplevel_37 Bool)
  (temp___do_typ_inv_38 Bool)) Bool (=>
                                    (or (= temp___is_init_35 true)
                                    (<= 0 2147483647)) (in_range
                                    temp___expr_39)))

;; Assume
  (assert (dynamic_invariant left true false true true))

;; Assume
  (assert (dynamic_invariant right true false true true))

(define-fun o () Int right)

(assert
;; defqtvc
 ;; File "simulink_functions.ads", line 209, characters 0-0
  (not (in_range o)))
(check-sat)
